proyfinal/src/viki/013/andrea/andrea-localstore/experimentInOfficeAgust.take6/worker_4/620a7631-0823-4eed-b367-0ba1b58d4d03.als.cnf.out
Reading from standard input... Use '--help' for help.
============================[ Problem Statistics ]=============================
|                                                                             |
|  Number of variables:         87638                                         |
|  Number of clauses:          161767                                         |
|  Parse time:                   0.04 s                                       |
|                                                                             |
============================[ Search Statistics ]==============================
| Conflicts |          ORIGINAL         |          LEARNT          | Progress |
|           |    Vars  Clauses Literals |    Limit  Clauses Lit/Cl |          |
===============================================================================
|       100 |   62262   104804   261857 |    38428      100      8 | 28.955 % |
|       250 |   62187   104728   261681 |    42270      245     48 | 29.041 % |
|       475 |   62187   104728   261681 |    46498      470     96 | 29.041 % |
|       812 |   62187   104505   261153 |    51147      805     89 | 29.041 % |
|      1318 |   62186   104461   261063 |    56262     1307    119 | 29.042 % |
|      2077 |   62141   104296   260627 |    61888     2045     99 | 29.094 % |
|      3216 |   62116   104194   260388 |    68077     3182     96 | 29.122 % |
|      4924 |   47540    62281   157396 |    74885     4813     92 | 45.754 % |
|      7486 |   47227    61678   155910 |    82374     7364     76 | 46.111 % |
===============================================================================
restarts              : 45
conflicts             : 10264          (7019 /sec)
decisions             : 35396          (0.00 % random) (24206 /sec)
propagations          : 15547369       (10632323 /sec)
conflict literals     : 645756         (42.92 % deleted)
Memory used           : 25.15 MB
CPU time              : 1.46227 s

UNSATISFIABLE
